
Gurobi 9.0.1 (linux64) logging started Thu Apr 30 18:29:49 2020

Gurobi Optimizer version 9.0.1 build v9.0.1rc0 (linux64)
Optimize a model with 13307 rows, 12060 columns and 202950 nonzeros
Model fingerprint: 0x29e15815
Variable types: 0 continuous, 12060 integer (12032 binary)
Coefficient statistics:
  Matrix range     [1e+00, 1e+01]
  Objective range  [3e+00, 1e+02]
  Bounds range     [1e+00, 1e+00]
  RHS range        [1e+00, 1e+00]

User MIP start produced solution with objective 909 (0.33s)
Loaded user MIP start with objective 909

Presolve removed 5054 rows and 3900 columns
Presolve time: 3.57s
Presolved: 8253 rows, 8160 columns, 165405 nonzeros
Variable types: 0 continuous, 8160 integer (8134 binary)

Root simplex log...

Iteration    Objective       Primal Inf.    Dual Inf.      Time
    1843    5.3309533e+02   2.102965e+03   0.000000e+00      5s
    5207    5.5055768e+02   2.295204e+04   0.000000e+00     10s
    7778    5.5561028e+02   9.499672e+02   0.000000e+00     15s
    9827    5.5778741e+02   4.658113e+02   0.000000e+00     20s
   11609    5.5892260e+02   4.271834e+02   0.000000e+00     25s
   13117    5.6068241e+02   1.285732e+02   0.000000e+00     30s
   13888    5.6101899e+02   0.000000e+00   0.000000e+00     33s

Root relaxation: objective 5.610190e+02, 13888 iterations, 28.77 seconds

    Nodes    |    Current Node    |     Objective Bounds      |     Work
 Expl Unexpl |  Obj  Depth IntInf | Incumbent    BestBd   Gap | It/Node Time

     0     0  561.01899    0 1666  909.00000  561.01899  38.3%     -   34s
     0     0  580.58172    0 1639  909.00000  580.58172  36.1%     -   63s
     0     0  583.41363    0 1689  909.00000  583.41363  35.8%     -   75s
     0     0  584.01880    0 1690  909.00000  584.01880  35.8%     -   80s
     0     0  584.03216    0 1675  909.00000  584.03216  35.8%     -   81s
     0     0  584.03397    0 1677  909.00000  584.03397  35.7%     -   81s
     0     0  596.29099    0 1760  909.00000  596.29099  34.4%     -  114s
     0     0  596.75761    0 1750  909.00000  596.75761  34.4%     -  123s
     0     0  596.79936    0 1750  909.00000  596.79936  34.3%     -  124s
     0     0  596.81940    0 1747  909.00000  596.81940  34.3%     -  126s
     0     0  596.81951    0 1748  909.00000  596.81951  34.3%     -  126s
     0     0  603.32159    0 1762  909.00000  603.32159  33.6%     -  165s
     0     0  603.77389    0 1754  909.00000  603.77389  33.6%     -  174s
     0     0  603.80300    0 1764  909.00000  603.80300  33.6%     -  176s
     0     0  603.80647    0 1753  909.00000  603.80647  33.6%     -  177s
     0     0  608.42255    0 1799  909.00000  608.42255  33.1%     -  220s
     0     0  608.62109    0 1806  909.00000  608.62109  33.0%     -  228s
     0     0  608.65013    0 1790  909.00000  608.65013  33.0%     -  230s
     0     0  608.66724    0 1790  909.00000  608.66724  33.0%     -  232s
     0     0  608.66913    0 1789  909.00000  608.66913  33.0%     -  233s
     0     0  610.65263    0 1796  909.00000  610.65263  32.8%     -  256s
     0     0  610.87614    0 1788  909.00000  610.87614  32.8%     -  263s
     0     0  610.90443    0 1807  909.00000  610.90443  32.8%     -  265s
     0     0  610.91080    0 1805  909.00000  610.91080  32.8%     -  266s
     0     0  611.82823    0 1813  909.00000  611.82823  32.7%     -  279s
     0     0  612.00712    0 1813  909.00000  612.00712  32.7%     -  285s
     0     0  612.04998    0 1812  909.00000  612.04998  32.7%     -  288s
     0     0  612.06294    0 1810  909.00000  612.06294  32.7%     -  289s
     0     0  612.92156    0 1826  909.00000  612.92156  32.6%     -  303s
     0     0  613.04554    0 1830  909.00000  613.04554  32.6%     -  311s
     0     0  613.06467    0 1835  909.00000  613.06467  32.6%     -  313s
     0     0  613.07358    0 1838  909.00000  613.07358  32.6%     -  314s
     0     0  613.61784    0 1838  909.00000  613.61784  32.5%     -  327s
     0     0  613.68176    0 1843  909.00000  613.68176  32.5%     -  335s
     0     0  613.70579    0 1848  909.00000  613.70579  32.5%     -  337s
     0     0  613.71640    0 1853  909.00000  613.71640  32.5%     -  338s
     0     0  614.18697    0 1846  909.00000  614.18697  32.4%     -  351s
     0     0  614.23323    0 1847  909.00000  614.23323  32.4%     -  359s
     0     0  614.24566    0 1851  909.00000  614.24566  32.4%     -  360s
     0     0  614.79891    0 1830  909.00000  614.79891  32.4%     -  371s
     0     0  614.87441    0 1841  909.00000  614.87441  32.4%     -  382s
     0     0  614.88759    0 1843  909.00000  614.88759  32.4%     -  384s
     0     0  615.57731    0 1823  909.00000  615.57731  32.3%     -  398s
     0     0  615.64857    0 1832  909.00000  615.64857  32.3%     -  403s
     0     0  615.67198    0 1836  909.00000  615.67198  32.3%     -  405s
     0     0  615.67598    0 1840  909.00000  615.67598  32.3%     -  406s
     0     0  616.21510    0 1827  909.00000  616.21510  32.2%     -  417s
     0     0  616.27939    0 1826  909.00000  616.27939  32.2%     -  422s
     0     0  616.29634    0 1831  909.00000  616.29634  32.2%     -  423s
     0     0  616.59948    0 1831  909.00000  616.59948  32.2%     -  433s
     0     0  616.64412    0 1837  909.00000  616.64412  32.2%     -  439s
     0     0  616.65445    0 1840  909.00000  616.65445  32.2%     -  440s
     0     0  616.89852    0 1841  909.00000  616.89852  32.1%     -  449s
     0     0  616.94574    0 1845  909.00000  616.94574  32.1%     -  454s
     0     0  616.95380    0 1841  909.00000  616.95380  32.1%     -  455s
     0     0  617.07782    0 1844  909.00000  617.07782  32.1%     -  462s
     0     0  617.07782    0 1841  909.00000  617.07782  32.1%     -  468s
     0     2  617.08725    0 1841  909.00000  617.08725  32.1%     -  527s
     1     3  644.41576    1 1589  909.00000  617.08725  32.1% 29272  651s
     2     4  617.21829    1 1834  909.00000  617.21829  32.1% 15084  655s
     3     5  636.25433    2 1548  909.00000  617.21829  32.1% 18512  761s
     4     6  617.53834    2 1833  909.00000  617.53834  32.1% 14148  765s
     5     7  645.22777    3 1630  909.00000  617.53834  32.1% 17592  894s
     6     8  617.65311    3 1791  909.00000  617.65311  32.1% 14804  898s
     7     9  648.98090    4 1571  909.00000  617.65311  32.1% 16521 1014s
     8    10  617.87920    4 1818  909.00000  617.87920  32.0% 14592 1019s
     9    11  638.33344    5 1585  909.00000  617.87920  32.0% 15639 1120s
    10    12  618.09004    5 1821  909.00000  618.09004  32.0% 14245 1126s
    11    13  655.70883    6 1599  909.00000  618.09004  32.0% 14499 1187s
    12    14  618.21088    6 1827  909.00000  618.21088  32.0% 13412 1192s
    13    15  651.56422    7 1545  909.00000  618.21088  32.0% 13595 1252s
    14    16  618.34577    7 1793  909.00000  618.34577  32.0% 12715 1256s
    15    17  646.08600    8 1631  909.00000  618.34577  32.0% 12777 1308s
    16    18  618.72565    8 1797  909.00000  618.72565  31.9% 12135 1317s
    17    19  645.43413    9 1577  909.00000  618.72565  31.9% 12402 1377s
    18    20  618.83255    9 1804  909.00000  618.83255  31.9% 11791 1382s
    19    21  637.72166   10 1594  909.00000  618.83255  31.9% 12036 1453s
    20    22  619.20287   10 1803  909.00000  619.20287  31.9% 11532 1459s
    21    23  622.64772   11 1691  909.00000  619.20287  31.9% 11314 1485s
    22    24  621.02435   11 1777  909.00000  621.02435  31.7% 10967 1500s
    23    25  622.13063   12 1803  909.00000  621.02435  31.7% 10619 1514s
    24    26  636.57301   12 1622  909.00000  622.13063  31.6% 10796 1578s
    25    27  622.53838   13 1810  909.00000  622.13063  31.6% 10444 1585s
    26    28  645.47670   13 1635  909.00000  622.53838  31.5% 10610 1635s
    27    29  622.80121   14 1771  909.00000  622.53838  31.5% 10260 1642s
    28    30  657.90095   14 1472  909.00000  622.64772  31.5% 11250 1792s
    29    31  622.94149   15 1782  909.00000  622.64772  31.5% 10916 1797s
    30    32  645.99335   15 1602  909.00000  622.64772  31.5% 11100 1868s
    31    33  623.05697   16 1768  909.00000  622.64772  31.5% 10780 1872s
    32    34  652.55916   16 1567  909.00000  622.64772  31.5% 11050 1934s
    33    35  624.56673   17 1764  909.00000  622.64772  31.5% 10799 1946s
    34    36  639.22860   17 1512  909.00000  622.64772  31.5% 11071 2021s
    35    37  625.47464   18 1762  909.00000  622.64772  31.5% 10866 2034s
    36    38  646.71565   18 1609  909.00000  622.64772  31.5% 11057 2105s
    37    39  626.26827   19 1726  909.00000  622.64772  31.5% 10835 2115s
    38    40  651.97516   19 1531  909.00000  622.64772  31.5% 10906 2160s
    39    41  626.80635   20 1725  909.00000  622.64772  31.5% 10665 2166s
    40    42  643.41663   20 1569  909.00000  622.64772  31.5% 10725 2220s
    42    44  656.28073   21 1570  909.00000  622.64772  31.5% 10634 2278s
    43    45  627.45024   22 1724  909.00000  622.64772  31.5% 10436 2286s
    44    46  667.22328   22 1460  909.00000  622.64772  31.5% 10934 2408s
    45    47  627.73068   23 1725  909.00000  622.64772  31.5% 10723 2423s
    46    48  657.40395   23 1547  909.00000  622.64772  31.5% 10812 2468s
    47    49  628.62130   24 1732  909.00000  622.64772  31.5% 10661 2480s
    48    50  680.19201   24 1487  909.00000  622.64772  31.5% 10762 2529s
    49    51  630.60237   25 1708  909.00000  622.64772  31.5% 10606 2542s
    50    52  639.56318   25 1609  909.00000  622.64772  31.5% 10657 2594s
    51    53  631.33941   26 1714  909.00000  622.64772  31.5% 10502 2602s
    52    54  659.57192   27 1534  909.00000  622.64772  31.5% 10623 2655s
    53    55  631.63900   27 1694  909.00000  622.64772  31.5% 10444 2660s
    54    56  632.70328   28 1672  909.00000  622.64772  31.5% 10287 2696s
    55    57  675.98025   28 1482  909.00000  622.64772  31.5% 10470 2773s
    56    58  633.50373   29 1699  909.00000  622.64772  31.5% 10332 2782s
    57    59  663.52487   29 1562  909.00000  622.64772  31.5% 10394 2823s
    58    60  646.37001   30 1578  909.00000  622.64772  31.5% 10566 2896s
    59    61  636.40827   30 1682  909.00000  622.64772  31.5% 10475 2912s
    60    62  637.33659   31 1676  909.00000  622.64772  31.5% 10363 2924s
    61    63  638.59580   32 1645  909.00000  622.64772  31.5% 10263 2937s
    62    64  656.60469   32 1570  909.00000  622.64772  31.5% 10295 2979s
    63    65  639.17890   33 1630  909.00000  622.64772  31.5% 10156 2985s
    64    66  656.47986   33 1532  909.00000  622.64772  31.5% 10520 3118s
    65    67  639.54228   34 1621  909.00000  622.64772  31.5% 10398 3127s
    66    68  670.82411   34 1578  909.00000  622.64772  31.5% 10551 3193s
    67    69  640.51920   35 1614  909.00000  622.64772  31.5% 10445 3204s
    68    70  670.15201   35 1466  909.00000  622.64772  31.5% 10490 3246s
    69    71  641.86185   36 1611  909.00000  622.64772  31.5% 10378 3256s
    70    72  678.25855   36 1488  909.00000  622.64772  31.5% 10628 3364s
    71    73  642.59379   37 1620  909.00000  622.64772  31.5% 10522 3374s
    72    74  672.75048   37 1512  909.00000  622.64772  31.5% 10582 3420s
    73    75  643.46821   38 1611  909.00000  622.64772  31.5% 10472 3428s
    74    76  659.75325   38 1422  909.00000  622.64772  31.5% 10510 3465s
    75    77  644.65561   39 1605  909.00000  622.64772  31.5% 10397 3484s
    76    78  681.47248   39 1479  909.00000  622.64772  31.5% 10593 3574s
    77    79  645.34030   40 1592  909.00000  622.64772  31.5% 10489 3581s

Cutting planes:
  MIR: 45
  Zero half: 40
  Mod-K: 2
  RLT: 1003

Explored 78 nodes (896575 simplex iterations) in 3600.02 seconds
Thread count was 1 (of 40 available processors)

Solution count 1: 909 

Time limit reached
Best objective 9.090000000000e+02, best bound 6.230000000000e+02, gap 31.4631%

User-callback calls 36487, time in user-callback 0.06 sec
